86, 1575
2296, 670
1989, 834
594, 974
2165, 680
1581, 921
1658, 514
610, 613
2230, 501
2163, 614
638, 846
2119, 787
2308, 837
535, 949
985, 615
1663, 563
1320, 858
2110, 937
1704, 941
539, 747
752, 826
719, 761
918, 786
1664, 953
1785, 565
1753, 640
2295, 522
502, 855
1863, 859
2228, 986
875, 532
534, 551
2055, 853
961, 887
2053, 699
778, 768
1408, 504
1201, 884
1705, 813
2452, 702
1829, 879
1192, 883
761, 771
1454, 843
2058, 965
1325, 541
2068, 615
1856, 783
2496, 964
1634, 611
2184, 669
2498, 675
684, 598
2171, 829
1347, 758
2288, 953
2081, 960
2024, 847
2449, 810
626, 674
743, 678
935, 603
1211, 932
1284, 911
2210, 935
1883, 670
887, 509
1854, 571
1843, 684
748, 750
1986, 753
935, 704
526, 540
1756, 568
1589, 637
575, 732
1532, 529
818, 635
1007, 799
1808, 589
1053, 950
2073, 762
709, 914
1529, 666
2062, 537
1699, 979
1618, 798